
Gurobi 10.0.1 (mac64[rosetta2], gurobi_cl) logging started Sat Apr 29 20:16:34 2023

Set parameter LogFile to value "gurobi.log"
Restricted license - for non-production use only - expires 2024-10-28

Gurobi 10.0.1 (mac64[rosetta2], gurobi_cl) logging started Sat Apr 29 20:31:41 2023

Set parameter LogFile to value "gurobi.log"
Restricted license - for non-production use only - expires 2024-10-28

Gurobi 10.0.1 (mac64[rosetta2], gurobi_cl) logging started Sat Apr 29 20:40:14 2023

Set parameter LogFile to value "gurobi.log"
Restricted license - for non-production use only - expires 2024-10-28

Gurobi 10.0.1 (mac64[rosetta2], gurobi_cl) logging started Sat Apr 29 22:35:21 2023

Set parameter LogFile to value "gurobi.log"
Restricted license - for non-production use only - expires 2024-10-28

Gurobi 10.0.1 (mac64[rosetta2], gurobi_cl) logging started Sat Apr 29 23:37:32 2023

Set parameter LogFile to value "gurobi.log"
Restricted license - for non-production use only - expires 2024-10-28

Gurobi 10.0.1 (mac64[rosetta2], gurobi_cl) logging started Sat Apr 29 23:38:05 2023

Set parameter LogFile to value "gurobi.log"
Restricted license - for non-production use only - expires 2024-10-28

Gurobi 10.0.1 (mac64[rosetta2], gurobi_cl) logging started Sat Apr 29 23:40:31 2023

Set parameter LogFile to value "gurobi.log"
Restricted license - for non-production use only - expires 2024-10-28

Gurobi 10.0.1 (mac64[rosetta2], gurobi_cl) logging started Sat Apr 29 23:41:00 2023

Set parameter LogFile to value "gurobi.log"
Restricted license - for non-production use only - expires 2024-10-28

Gurobi 10.0.1 (mac64[rosetta2], gurobi_cl) logging started Sat Apr 29 23:41:45 2023

Set parameter LogFile to value "gurobi.log"
Restricted license - for non-production use only - expires 2024-10-28

Gurobi 10.0.1 (mac64[rosetta2], gurobi_cl) logging started Sat Apr 29 23:41:58 2023

Set parameter LogFile to value "gurobi.log"
Restricted license - for non-production use only - expires 2024-10-28

Gurobi 10.0.1 (mac64[rosetta2], gurobi_cl) logging started Sat Apr 29 23:42:08 2023

Set parameter LogFile to value "gurobi.log"
Restricted license - for non-production use only - expires 2024-10-28

Gurobi 10.0.1 (mac64[rosetta2], gurobi_cl) logging started Sat Apr 29 23:45:45 2023

Set parameter LogFile to value "gurobi.log"
Restricted license - for non-production use only - expires 2024-10-28

Gurobi 10.0.1 (mac64[rosetta2], gurobi_cl) logging started Sat Apr 29 23:50:43 2023

Set parameter LogFile to value "gurobi.log"
Restricted license - for non-production use only - expires 2024-10-28

Gurobi 10.0.1 (mac64[rosetta2], gurobi_cl) logging started Sat Apr 29 23:50:59 2023

Set parameter LogFile to value "gurobi.log"
Restricted license - for non-production use only - expires 2024-10-28

Gurobi 10.0.1 (mac64[rosetta2], gurobi_cl) logging started Sun Apr 30 01:22:55 2023

Set parameter LogFile to value "gurobi.log"
Restricted license - for non-production use only - expires 2024-10-28

Gurobi 10.0.1 (mac64[rosetta2], gurobi_cl) logging started Sun Apr 30 01:23:46 2023

Set parameter LogFile to value "gurobi.log"
Restricted license - for non-production use only - expires 2024-10-28

Gurobi 10.0.1 (mac64[rosetta2], gurobi_cl) logging started Sun Apr 30 01:46:31 2023

Set parameter LogFile to value "gurobi.log"
Restricted license - for non-production use only - expires 2024-10-28

Gurobi 10.0.1 (mac64[rosetta2], gurobi_cl) logging started Sun Apr 30 01:46:56 2023

Set parameter LogFile to value "gurobi.log"
Restricted license - for non-production use only - expires 2024-10-28

Gurobi 10.0.1 (mac64[rosetta2], gurobi_cl) logging started Sun Apr 30 01:59:07 2023

Set parameter LogFile to value "gurobi.log"
Restricted license - for non-production use only - expires 2024-10-28

Gurobi 10.0.1 (mac64[rosetta2], gurobi_cl) logging started Sun Apr 30 02:00:01 2023

Set parameter LogFile to value "gurobi.log"
Restricted license - for non-production use only - expires 2024-10-28

Gurobi 10.0.1 (mac64[rosetta2], gurobi_cl) logging started Sun Apr 30 02:04:46 2023

Set parameter LogFile to value "gurobi.log"
Restricted license - for non-production use only - expires 2024-10-28

Gurobi 10.0.1 (mac64[rosetta2], gurobi_cl) logging started Sun Apr 30 02:05:05 2023

Set parameter LogFile to value "gurobi.log"
Restricted license - for non-production use only - expires 2024-10-28

Gurobi 10.0.1 (mac64[rosetta2], gurobi_cl) logging started Sun Apr 30 02:05:35 2023

Set parameter LogFile to value "gurobi.log"
Restricted license - for non-production use only - expires 2024-10-28

Gurobi 10.0.1 (mac64[rosetta2], gurobi_cl) logging started Sun Apr 30 02:07:12 2023

Set parameter LogFile to value "gurobi.log"
Restricted license - for non-production use only - expires 2024-10-28

Gurobi 10.0.1 (mac64[rosetta2], gurobi_cl) logging started Sun Apr 30 02:07:46 2023

Set parameter LogFile to value "gurobi.log"
Restricted license - for non-production use only - expires 2024-10-28

Gurobi 10.0.1 (mac64[rosetta2], gurobi_cl) logging started Sun Apr 30 02:08:35 2023

Set parameter LogFile to value "gurobi.log"
Restricted license - for non-production use only - expires 2024-10-28

Gurobi 10.0.1 (mac64[rosetta2], gurobi_cl) logging started Sun Apr 30 02:08:58 2023

Set parameter LogFile to value "gurobi.log"
Restricted license - for non-production use only - expires 2024-10-28

Gurobi 10.0.1 (mac64[rosetta2], gurobi_cl) logging started Sun Apr 30 02:09:55 2023

Set parameter LogFile to value "gurobi.log"
Restricted license - for non-production use only - expires 2024-10-28

Gurobi 10.0.1 (mac64[rosetta2], gurobi_cl) logging started Sun Apr 30 02:10:06 2023

Set parameter LogFile to value "gurobi.log"
Restricted license - for non-production use only - expires 2024-10-28

Gurobi 10.0.1 (mac64[rosetta2], gurobi_cl) logging started Sun Apr 30 19:43:24 2023

Set parameter LogFile to value "gurobi.log"
Restricted license - for non-production use only - expires 2024-10-28

Gurobi 10.0.1 (mac64[rosetta2], gurobi_cl) logging started Sun Apr 30 20:53:06 2023

Set parameter LogFile to value "gurobi.log"
Restricted license - for non-production use only - expires 2024-10-28

Gurobi 10.0.1 (mac64[rosetta2], gurobi_cl) logging started Sun Apr 30 20:54:05 2023

Set parameter LogFile to value "gurobi.log"
Restricted license - for non-production use only - expires 2024-10-28

Gurobi 10.0.1 (mac64[rosetta2], gurobi_cl) logging started Sun Apr 30 20:59:52 2023

Set parameter LogFile to value "gurobi.log"
Restricted license - for non-production use only - expires 2024-10-28

Gurobi 10.0.1 (mac64[rosetta2], gurobi_cl) logging started Sun Apr 30 21:02:18 2023

Set parameter LogFile to value "gurobi.log"
Restricted license - for non-production use only - expires 2024-10-28

Gurobi 10.0.1 (mac64[rosetta2], gurobi_cl) logging started Sun Apr 30 21:02:49 2023

Set parameter LogFile to value "gurobi.log"
Restricted license - for non-production use only - expires 2024-10-28

Gurobi 10.0.1 (mac64[rosetta2], gurobi_cl) logging started Sun Apr 30 21:05:34 2023

Set parameter LogFile to value "gurobi.log"
Restricted license - for non-production use only - expires 2024-10-28

Gurobi 10.0.1 (mac64[rosetta2], gurobi_cl) logging started Sun Apr 30 21:11:15 2023

Set parameter LogFile to value "gurobi.log"
Restricted license - for non-production use only - expires 2024-10-28

Gurobi 10.0.1 (mac64[rosetta2], gurobi_cl) logging started Sun Apr 30 21:14:18 2023

Set parameter LogFile to value "gurobi.log"
Restricted license - for non-production use only - expires 2024-10-28

Gurobi 10.0.1 (mac64[rosetta2], gurobi_cl) logging started Sun Apr 30 21:16:38 2023

Set parameter LogFile to value "gurobi.log"
Restricted license - for non-production use only - expires 2024-10-28

Gurobi 10.0.1 (mac64[rosetta2], gurobi_cl) logging started Sun Apr 30 21:17:30 2023

Set parameter LogFile to value "gurobi.log"
Restricted license - for non-production use only - expires 2024-10-28

Gurobi 10.0.1 (mac64[rosetta2], gurobi_cl) logging started Sun Apr 30 21:19:02 2023

Set parameter LogFile to value "gurobi.log"
Restricted license - for non-production use only - expires 2024-10-28

Gurobi 10.0.1 (mac64[rosetta2], gurobi_cl) logging started Sun Apr 30 21:20:01 2023

Set parameter LogFile to value "gurobi.log"
Restricted license - for non-production use only - expires 2024-10-28

Gurobi 10.0.1 (mac64[rosetta2], gurobi_cl) logging started Sun Apr 30 21:22:16 2023

Set parameter LogFile to value "gurobi.log"
Restricted license - for non-production use only - expires 2024-10-28

Gurobi 10.0.1 (mac64[rosetta2], gurobi_cl) logging started Sun Apr 30 21:25:16 2023

Set parameter LogFile to value "gurobi.log"
Restricted license - for non-production use only - expires 2024-10-28

Gurobi 10.0.1 (mac64[rosetta2], gurobi_cl) logging started Sun Apr 30 21:28:45 2023

Set parameter LogFile to value "gurobi.log"
Restricted license - for non-production use only - expires 2024-10-28

Gurobi 10.0.1 (mac64[rosetta2], gurobi_cl) logging started Sun Apr 30 21:31:23 2023

Set parameter LogFile to value "gurobi.log"
Restricted license - for non-production use only - expires 2024-10-28

Gurobi 10.0.1 (mac64[rosetta2], gurobi_cl) logging started Sun Apr 30 21:32:57 2023

Set parameter LogFile to value "gurobi.log"
Restricted license - for non-production use only - expires 2024-10-28

Gurobi 10.0.1 (mac64[rosetta2], gurobi_cl) logging started Sun Apr 30 21:35:17 2023

Set parameter LogFile to value "gurobi.log"
Restricted license - for non-production use only - expires 2024-10-28

Gurobi 10.0.1 (mac64[rosetta2], gurobi_cl) logging started Sun Apr 30 21:42:26 2023

Set parameter LogFile to value "gurobi.log"
Restricted license - for non-production use only - expires 2024-10-28

Gurobi 10.0.1 (mac64[rosetta2], gurobi_cl) logging started Sun Apr 30 21:43:29 2023

Set parameter LogFile to value "gurobi.log"
Restricted license - for non-production use only - expires 2024-10-28

Gurobi 10.0.1 (mac64[rosetta2], gurobi_cl) logging started Sun Apr 30 21:44:05 2023

Set parameter LogFile to value "gurobi.log"
Restricted license - for non-production use only - expires 2024-10-28

Gurobi 10.0.1 (mac64[rosetta2], gurobi_cl) logging started Sun Apr 30 21:46:08 2023

Set parameter LogFile to value "gurobi.log"
Restricted license - for non-production use only - expires 2024-10-28

Gurobi 10.0.1 (mac64[rosetta2], gurobi_cl) logging started Sun Apr 30 21:47:07 2023

Set parameter LogFile to value "gurobi.log"
Restricted license - for non-production use only - expires 2024-10-28

Gurobi 10.0.1 (mac64[rosetta2], gurobi_cl) logging started Sun Apr 30 21:50:58 2023

Set parameter LogFile to value "gurobi.log"
Restricted license - for non-production use only - expires 2024-10-28

Gurobi 10.0.1 (mac64[rosetta2], gurobi_cl) logging started Sun Apr 30 21:59:33 2023

Set parameter LogFile to value "gurobi.log"
Restricted license - for non-production use only - expires 2024-10-28

Gurobi 10.0.1 (mac64[rosetta2], gurobi_cl) logging started Sun Apr 30 22:01:51 2023

Set parameter LogFile to value "gurobi.log"
Restricted license - for non-production use only - expires 2024-10-28

Gurobi 10.0.1 (mac64[rosetta2], gurobi_cl) logging started Sun Apr 30 22:06:26 2023

Set parameter LogFile to value "gurobi.log"
Restricted license - for non-production use only - expires 2024-10-28

Gurobi 10.0.1 (mac64[rosetta2], gurobi_cl) logging started Sun Apr 30 22:11:20 2023

Set parameter LogFile to value "gurobi.log"
Restricted license - for non-production use only - expires 2024-10-28

Gurobi 10.0.1 (mac64[rosetta2], gurobi_cl) logging started Sun Apr 30 22:14:44 2023

Set parameter LogFile to value "gurobi.log"
Restricted license - for non-production use only - expires 2024-10-28

Gurobi 10.0.1 (mac64[rosetta2], gurobi_cl) logging started Sun Apr 30 22:24:28 2023

Set parameter LogFile to value "gurobi.log"
Restricted license - for non-production use only - expires 2024-10-28

Gurobi 10.0.1 (mac64[rosetta2], gurobi_cl) logging started Sun Apr 30 22:37:49 2023

Set parameter LogFile to value "gurobi.log"
Restricted license - for non-production use only - expires 2024-10-28

Gurobi 10.0.1 (mac64[rosetta2], gurobi_cl) logging started Sun Apr 30 22:40:03 2023

Set parameter LogFile to value "gurobi.log"
Restricted license - for non-production use only - expires 2024-10-28

Gurobi 10.0.1 (mac64[rosetta2], gurobi_cl) logging started Sun Apr 30 22:40:55 2023

Set parameter LogFile to value "gurobi.log"
Restricted license - for non-production use only - expires 2024-10-28

Gurobi 10.0.1 (mac64[rosetta2], gurobi_cl) logging started Sun Apr 30 22:41:48 2023

Set parameter LogFile to value "gurobi.log"
Restricted license - for non-production use only - expires 2024-10-28

Gurobi 10.0.1 (mac64[rosetta2], gurobi_cl) logging started Sun Apr 30 22:42:42 2023

Set parameter LogFile to value "gurobi.log"
Restricted license - for non-production use only - expires 2024-10-28

Gurobi 10.0.1 (mac64[rosetta2], gurobi_cl) logging started Sun Apr 30 22:43:26 2023

Set parameter LogFile to value "gurobi.log"
Restricted license - for non-production use only - expires 2024-10-28

Gurobi 10.0.1 (mac64[rosetta2], gurobi_cl) logging started Sun Apr 30 22:44:47 2023

Set parameter LogFile to value "gurobi.log"
Restricted license - for non-production use only - expires 2024-10-28

Gurobi 10.0.1 (mac64[rosetta2], gurobi_cl) logging started Sun Apr 30 22:53:51 2023

Set parameter LogFile to value "gurobi.log"
Restricted license - for non-production use only - expires 2024-10-28

Gurobi 10.0.1 (mac64[rosetta2], gurobi_cl) logging started Sun Apr 30 23:06:47 2023

Set parameter LogFile to value "gurobi.log"
Restricted license - for non-production use only - expires 2024-10-28

Gurobi 10.0.1 (mac64[rosetta2], gurobi_cl) logging started Sun Apr 30 23:13:01 2023

Set parameter LogFile to value "gurobi.log"
Restricted license - for non-production use only - expires 2024-10-28

Gurobi 10.0.1 (mac64[rosetta2], gurobi_cl) logging started Sun Apr 30 23:25:58 2023

Set parameter LogFile to value "gurobi.log"
Restricted license - for non-production use only - expires 2024-10-28

Gurobi 10.0.1 (mac64[rosetta2], gurobi_cl) logging started Sun Apr 30 23:52:48 2023

Set parameter LogFile to value "gurobi.log"
Restricted license - for non-production use only - expires 2024-10-28

Gurobi 10.0.1 (mac64[rosetta2], gurobi_cl) logging started Mon May  1 01:00:30 2023

Set parameter LogFile to value "gurobi.log"
Restricted license - for non-production use only - expires 2024-10-28

Gurobi 10.0.1 (mac64[rosetta2], gurobi_cl) logging started Mon May  1 02:13:16 2023

Set parameter LogFile to value "gurobi.log"
Restricted license - for non-production use only - expires 2024-10-28

Gurobi 10.0.1 (mac64[rosetta2], gurobi_cl) logging started Mon May  1 02:48:40 2023

Set parameter LogFile to value "gurobi.log"
Restricted license - for non-production use only - expires 2024-10-28

Gurobi 10.0.1 (mac64[rosetta2], gurobi_cl) logging started Mon May  1 04:00:26 2023

Set parameter LogFile to value "gurobi.log"
Restricted license - for non-production use only - expires 2024-10-28

Gurobi 10.0.1 (mac64[rosetta2], gurobi_cl) logging started Mon May  1 04:02:44 2023

Set parameter LogFile to value "gurobi.log"
Restricted license - for non-production use only - expires 2024-10-28

Gurobi 10.0.1 (mac64[rosetta2], gurobi_cl) logging started Mon May  1 11:59:57 2023

Set parameter LogFile to value "gurobi.log"
Restricted license - for non-production use only - expires 2024-10-28

Gurobi 10.0.1 (mac64[rosetta2], gurobi_cl) logging started Mon May  1 12:03:17 2023

Set parameter LogFile to value "gurobi.log"
Restricted license - for non-production use only - expires 2024-10-28
